25 2
25 200
10
30
10
10
10
20
20
20
10
10
10
20
30
10
40
40
20
20
10
10
20
20
10
10
40
40 50 0 1236 0 0
45 68 890 989 90 2
45 70 816 879 90 1
42 66 55 156 90 1
42 68 703 806 90 2
42 65 15 60 90 2
40 69 559 764 90 2
40 66 172 223 90 3
38 68 250 329 90 3
38 70 489 650 90 1
35 66 361 406 90 3
35 69 450 503 90 1
25 85 647 726 90 3
22 75 30 95 90 2
22 85 571 616 90 3
20 80 392 421 90 3
20 85 478 525 90 1
18 75 105 142 90 2
15 75 172 261 90 3
15 80 274 349 90 1
30 50 10 77 90 1
30 52 918 961 90 2
28 52 806 889 90 2
28 55 739 770 90 2
25 50 55 154 90 1
25 52 172 221 90 1
20 50 0 1236 45 4
29 81 0 1236 45 4
0 1
0 0
0 0
0 1
0 1
0 1
0 1
0 1
0 0
0 1
0 0
0 1
0 1
0 1
0 1
0 0
0 1
0 1
0 0
0 0
1 0
1 0
1 0
0 0
0 0
